
  32    4
  10   10   10   10

   0   0   0   0   0   1 2 
   9   1   1   2   0   1 3 
   1   2   8   1   0   1 4 
   5   0   5   6   1   1 5 
  10   6   3   3   0   1 6 
   6   8   0   4   1   1 7 
  10   5   0   7   7   1 8 
   1   3   4   0   3   1 9 
   1   3   0   2   6   1 10 
   6   0   3   1   5   2 12 11 
   9   0   2   2   2   1 13 
   9   3   0   2   3   1 13 
   8   2   0   2   7   1 14 
   6   0   6   5   4   1 15 
  10   4   0   9   5   1 16 
   2   0   6   6   4   1 17 
   1   4   5   4   0   1 18 
   7   9   0   7   4   2 22 19 
   9   0   4   2   3   1 20 
   2   4   3   5   0   1 21 
   2   5   2   8   0   1 23 
   8   3   0   3   4   1 23 
   4   8   4   2   0   2 28 24 
   4   0   5   1   4   1 25 
   4   1   0  10   3   1 26 
   9   3   5   0   5   1 27 
   6   3   6   0   3   1 29 
   6   0   2   6   4   1 29 
   2   0   3   2   2   1 30 
   6   4   3   0   8   1 31 
   7   3   0   2   4   1 32
   0   0   0   0   0   0 
